h=7;
b=[|2,7,-1,-1,1,-1,6,-1,9,-1|-1,3,-1,9,8,-1,2,7,5,6|-1,2,0,-1,5,3,-1,9,1,8|3,8,9,-1,0,4,-1,5,-1,2|9,4,1,5,6,3,7,-1,8,0|6,7,9,8,-1,-1,1,3,4,5|-1,4,-1,-1,7,5,-1,2,-1,3|];
s=[40,35,29,43,29,20,31,28,33,27]